c User generated cnf file
p cnf 12 40
9 8 -11 0 
2 -11 11 0 
-8 9 11 0 
7 10 -8 0 
-7 2 5 0 
1 -1 4 0 
6 -12 6 0 
7 3 -1 0 
1 6 -4 0 
3 -8 4 0 
1 -10 4 0 
-10 6 2 0 
4 11 -7 0 
2 -3 6 0 
-7 3 3 0 
12 11 -12 0 
8 -8 7 0 
4 -4 6 0 
-6 2 6 0 
6 4 -6 0 
5 2 -12 0 
7 12 -8 0 
6 1 -1 0 
-11 2 8 0 
-10 11 12 0 
5 -2 6 0 
1 1 -3 0 
1 5 -8 0 
7 3 -5 0 
7 -2 8 0 
9 1 -6 0 
4 4 -1 0 
1 1 -5 0 
8 -11 8 0 
-9 5 9 0 
5 -3 11 0 
10 -7 7 0 
6 1 -7 0 
10 -6 1 0 
12 8 -4 0 
